p cnf 1696 2465
-9 -3 0
-9 -3 0
-10 -3 0
-10 6 -3 0
-11 9 10 -3 0
11 -9 -3 0
11 -10 -3 0
-13 6 -3 0
-13 12 -3 0
-6 -12 13 -3 0
-14 11 13 -3 0
14 -11 -3 0
14 -13 -3 0
14 -3 0
-15 3 -6 0
-15 -6 0
-16 3 -6 0
-16 12 -6 0
-3 -12 16 -6 0
-17 15 16 -6 0
17 -15 -6 0
17 -16 -6 0
-19 12 -6 0
-19 -6 0
-20 17 19 -6 0
20 -17 -6 0
20 -19 -6 0
20 -6 0
-21 6 -12 0
-21 3 -12 0
-6 -3 21 -12 0
-22 6 -12 0
-22 -12 0
-23 21 22 -12 0
23 -21 -12 0
23 -22 -12 0
-25 -12 0
-25 -12 0
-26 23 25 -12 0
26 -23 -12 0
26 -25 -12 0
26 -12 0
-75 -69 0
-75 -69 0
-76 -69 0
-76 72 -69 0
-77 75 76 -69 0
77 -75 -69 0
77 -76 -69 0
-79 72 -69 0
-79 78 -69 0
-72 -78 79 -69 0
-80 77 79 -69 0
80 -77 -69 0
80 -79 -69 0
80 -69 0
-81 69 -72 0
-81 -72 0
-82 69 -72 0
-82 78 -72 0
-69 -78 82 -72 0
-83 81 82 -72 0
83 -81 -72 0
83 -82 -72 0
-85 78 -72 0
-85 -72 0
-86 83 85 -72 0
86 -83 -72 0
86 -85 -72 0
86 -72 0
-87 72 -78 0
-87 69 -78 0
-72 -69 87 -78 0
-88 72 -78 0
-88 -78 0
-89 87 88 -78 0
89 -87 -78 0
89 -88 -78 0
-91 -78 0
-91 -78 0
-92 89 91 -78 0
92 -89 -78 0
92 -91 -78 0
92 -78 0
-147 -138 0
-147 -138 0
-148 -138 0
-148 -138 0
-149 147 148 -138 0
149 -147 -138 0
149 -148 -138 0
-151 -138 0
-151 -138 0
-152 149 151 -138 0
152 -149 -138 0
152 -151 -138 0
152 -138 0
-213 -204 0
-213 -204 0
-214 -204 0
-214 -204 0
-215 213 214 -204 0
215 -213 -204 0
215 -214 -204 0
-217 -204 0
-217 -204 0
-218 215 217 -204 0
218 -215 -204 0
218 -217 -204 0
218 -204 0
-411 -402 0
-411 -402 0
-412 -402 0
-412 -402 0
-413 411 412 -402 0
413 -411 -402 0
413 -412 -402 0
-415 -402 0
-415 -402 0
-416 413 415 -402 0
416 -413 -402 0
416 -415 -402 0
416 -402 0
-477 -468 0
-477 -468 0
-478 -468 0
-478 -468 0
-479 477 478 -468 0
479 -477 -468 0
479 -478 -468 0
-481 -468 0
-481 -468 0
-482 479 481 -468 0
482 -479 -468 0
482 -481 -468 0
482 -468 0
531 -538 0
-531 538 0
-533 531 -539 0
533 539 0
-531 539 0
-531 533 -541 0
531 541 0
-533 541 0
-535 533 -542 0
535 542 0
-533 542 0
-533 535 -544 0
533 544 0
-535 544 0
535 -545 0
-535 545 0
-538 -539 -541 -542 -544 -545 546 0
-546 538 0
-546 539 0
-546 541 0
-546 542 0
-546 544 0
-546 545 0
549 -556 0
-549 556 0
549 548 -557 0
-549 557 0
-548 557 0
-547 550 -558 0
547 558 0
-550 558 0
-548 551 -559 0
548 559 0
-551 559 0
-548 551 550 -560 0
548 560 0
-551 560 0
-550 560 0
-549 552 -561 0
549 561 0
-552 561 0
-549 552 551 -562 0
549 562 0
-552 562 0
-551 562 0
-550 553 -563 0
550 563 0
-553 563 0
-551 554 -564 0
551 564 0
-554 564 0
-551 554 553 -565 0
551 565 0
-554 565 0
-553 565 0
-552 555 -566 0
552 566 0
-555 566 0
-552 555 554 -567 0
552 567 0
-555 567 0
-554 567 0
-553 -568 0
553 568 0
-554 -569 0
554 569 0
-555 -570 0
555 570 0
-556 -557 -558 -559 -560 -561 -562 -563 -564 -565 -566 -567 -568 -569 -570 571 0
-571 556 0
-571 557 0
-571 558 0
-571 559 0
-571 560 0
-571 561 0
-571 562 0
-571 563 0
-571 564 0
-571 565 0
-571 566 0
-571 567 0
-571 568 0
-571 569 0
-571 570 0
546 571 0
575 -582 0
-575 582 0
-577 575 -583 0
577 583 0
-575 583 0
-575 577 -585 0
575 585 0
-577 585 0
-579 577 -586 0
579 586 0
-577 586 0
-577 579 -588 0
577 588 0
-579 588 0
579 -589 0
-579 589 0
-582 -583 -585 -586 -588 -589 590 0
-590 582 0
-590 583 0
-590 585 0
-590 586 0
-590 588 0
-590 589 0
593 -600 0
-593 600 0
593 592 -601 0
-593 601 0
-592 601 0
-591 594 -602 0
591 602 0
-594 602 0
-592 595 -603 0
592 603 0
-595 603 0
-592 595 594 -604 0
592 604 0
-595 604 0
-594 604 0
-593 596 -605 0
593 605 0
-596 605 0
-593 596 595 -606 0
593 606 0
-596 606 0
-595 606 0
-594 597 -607 0
594 607 0
-597 607 0
-595 598 -608 0
595 608 0
-598 608 0
-595 598 597 -609 0
595 609 0
-598 609 0
-597 609 0
-596 599 -610 0
596 610 0
-599 610 0
-596 599 598 -611 0
596 611 0
-599 611 0
-598 611 0
-597 -612 0
597 612 0
-598 -613 0
598 613 0
-599 -614 0
599 614 0
-600 -601 -602 -603 -604 -605 -606 -607 -608 -609 -610 -611 -612 -613 -614 615 0
-615 600 0
-615 601 0
-615 602 0
-615 603 0
-615 604 0
-615 605 0
-615 606 0
-615 607 0
-615 608 0
-615 609 0
-615 610 0
-615 611 0
-615 612 0
-615 613 0
-615 614 0
590 615 0
619 -626 0
-619 626 0
-621 619 -627 0
621 627 0
-619 627 0
-619 621 -629 0
619 629 0
-621 629 0
-623 621 -630 0
623 630 0
-621 630 0
-621 623 -632 0
621 632 0
-623 632 0
623 -633 0
-623 633 0
-626 -627 -629 -630 -632 -633 634 0
-634 626 0
-634 627 0
-634 629 0
-634 630 0
-634 632 0
-634 633 0
637 -644 0
-637 644 0
637 636 -645 0
-637 645 0
-636 645 0
-635 638 -646 0
635 646 0
-638 646 0
-636 639 -647 0
636 647 0
-639 647 0
-636 639 638 -648 0
636 648 0
-639 648 0
-638 648 0
-637 640 -649 0
637 649 0
-640 649 0
-637 640 639 -650 0
637 650 0
-640 650 0
-639 650 0
-638 641 -651 0
638 651 0
-641 651 0
-639 642 -652 0
639 652 0
-642 652 0
-639 642 641 -653 0
639 653 0
-642 653 0
-641 653 0
-640 643 -654 0
640 654 0
-643 654 0
-640 643 642 -655 0
640 655 0
-643 655 0
-642 655 0
-641 -656 0
641 656 0
-642 -657 0
642 657 0
-643 -658 0
643 658 0
-644 -645 -646 -647 -648 -649 -650 -651 -652 -653 -654 -655 -656 -657 -658 659 0
-659 644 0
-659 645 0
-659 646 0
-659 647 0
-659 648 0
-659 649 0
-659 650 0
-659 651 0
-659 652 0
-659 653 0
-659 654 0
-659 655 0
-659 656 0
-659 657 0
-659 658 0
634 659 0
663 -670 0
-663 670 0
-665 663 -671 0
665 671 0
-663 671 0
-663 665 -673 0
663 673 0
-665 673 0
-667 665 -674 0
667 674 0
-665 674 0
-665 667 -676 0
665 676 0
-667 676 0
667 -677 0
-667 677 0
-670 -671 -673 -674 -676 -677 678 0
-678 670 0
-678 671 0
-678 673 0
-678 674 0
-678 676 0
-678 677 0
681 -688 0
-681 688 0
681 680 -689 0
-681 689 0
-680 689 0
-679 682 -690 0
679 690 0
-682 690 0
-680 683 -691 0
680 691 0
-683 691 0
-680 683 682 -692 0
680 692 0
-683 692 0
-682 692 0
-681 684 -693 0
681 693 0
-684 693 0
-681 684 683 -694 0
681 694 0
-684 694 0
-683 694 0
-682 685 -695 0
682 695 0
-685 695 0
-683 686 -696 0
683 696 0
-686 696 0
-683 686 685 -697 0
683 697 0
-686 697 0
-685 697 0
-684 687 -698 0
684 698 0
-687 698 0
-684 687 686 -699 0
684 699 0
-687 699 0
-686 699 0
-685 -700 0
685 700 0
-686 -701 0
686 701 0
-687 -702 0
687 702 0
-688 -689 -690 -691 -692 -693 -694 -695 -696 -697 -698 -699 -700 -701 -702 703 0
-703 688 0
-703 689 0
-703 690 0
-703 691 0
-703 692 0
-703 693 0
-703 694 0
-703 695 0
-703 696 0
-703 697 0
-703 698 0
-703 699 0
-703 700 0
-703 701 0
-703 702 0
678 703 0
-707 -705 -712 0
707 712 0
705 712 0
705 707 -714 0
-705 714 0
-707 714 0
-709 707 -715 0
709 715 0
-707 715 0
-707 709 -717 0
707 717 0
-709 717 0
-711 709 -718 0
711 718 0
-709 718 0
-709 711 -720 0
709 720 0
-711 720 0
711 -721 0
-711 721 0
-712 -714 -715 -717 -718 -720 -721 722 0
-722 712 0
-722 714 0
-722 715 0
-722 717 0
-722 718 0
-722 720 0
-722 721 0
705 725 -732 0
-705 732 0
-725 732 0
725 724 -733 0
-725 733 0
-724 733 0
-723 726 -734 0
723 734 0
-726 734 0
-724 727 -735 0
724 735 0
-727 735 0
-724 727 726 -736 0
724 736 0
-727 736 0
-726 736 0
-725 728 -737 0
725 737 0
-728 737 0
-725 728 727 -738 0
725 738 0
-728 738 0
-727 738 0
-726 729 -739 0
726 739 0
-729 739 0
-727 730 -740 0
727 740 0
-730 740 0
-727 730 729 -741 0
727 741 0
-730 741 0
-729 741 0
-728 731 -742 0
728 742 0
-731 742 0
-728 731 730 -743 0
728 743 0
-731 743 0
-730 743 0
-729 -744 0
729 744 0
-730 -745 0
730 745 0
-731 -746 0
731 746 0
-732 -733 -734 -735 -736 -737 -738 -739 -740 -741 -742 -743 -744 -745 -746 747 0
-747 732 0
-747 733 0
-747 734 0
-747 735 0
-747 736 0
-747 737 0
-747 738 0
-747 739 0
-747 740 0
-747 741 0
-747 742 0
-747 743 0
-747 744 0
-747 745 0
-747 746 0
722 747 0
-751 -749 -756 0
751 756 0
749 756 0
749 751 -758 0
-749 758 0
-751 758 0
-753 751 -759 0
753 759 0
-751 759 0
-751 753 -761 0
751 761 0
-753 761 0
-755 753 -762 0
755 762 0
-753 762 0
-753 755 -764 0
753 764 0
-755 764 0
755 -765 0
-755 765 0
-756 -758 -759 -761 -762 -764 -765 766 0
-766 756 0
-766 758 0
-766 759 0
-766 761 0
-766 762 0
-766 764 0
-766 765 0
749 769 -776 0
-749 776 0
-769 776 0
769 768 -777 0
-769 777 0
-768 777 0
-767 770 -778 0
767 778 0
-770 778 0
-768 771 -779 0
768 779 0
-771 779 0
-768 771 770 -780 0
768 780 0
-771 780 0
-770 780 0
-769 772 -781 0
769 781 0
-772 781 0
-769 772 771 -782 0
769 782 0
-772 782 0
-771 782 0
-770 773 -783 0
770 783 0
-773 783 0
-771 774 -784 0
771 784 0
-774 784 0
-771 774 773 -785 0
771 785 0
-774 785 0
-773 785 0
-772 775 -786 0
772 786 0
-775 786 0
-772 775 774 -787 0
772 787 0
-775 787 0
-774 787 0
-773 -788 0
773 788 0
-774 -789 0
774 789 0
-775 -790 0
775 790 0
-776 -777 -778 -779 -780 -781 -782 -783 -784 -785 -786 -787 -788 -789 -790 791 0
-791 776 0
-791 777 0
-791 778 0
-791 779 0
-791 780 0
-791 781 0
-791 782 0
-791 783 0
-791 784 0
-791 785 0
-791 786 0
-791 787 0
-791 788 0
-791 789 0
-791 790 0
766 791 0
-795 -793 -800 0
795 800 0
793 800 0
-795 -794 -801 0
795 801 0
794 801 0
793 794 795 -802 0
-793 802 0
-794 802 0
-795 802 0
-797 795 -803 0
797 803 0
-795 803 0
-795 797 -805 0
795 805 0
-797 805 0
-799 797 -806 0
799 806 0
-797 806 0
-799 -798 -807 0
799 807 0
798 807 0
-797 798 799 -808 0
797 808 0
-798 808 0
-799 808 0
799 -809 0
-799 809 0
-800 -801 -802 -803 -805 -806 -807 -808 -809 810 0
-810 800 0
-810 801 0
-810 802 0
-810 803 0
-810 805 0
-810 806 0
-810 807 0
-810 808 0
-810 809 0
793 813 -820 0
-793 820 0
-813 820 0
813 812 -821 0
-813 821 0
-812 821 0
-811 814 794 -822 0
811 822 0
-814 822 0
-794 822 0
-812 815 794 -823 0
812 823 0
-815 823 0
-794 823 0
-812 815 814 -824 0
812 824 0
-815 824 0
-814 824 0
-813 816 794 -825 0
813 825 0
-816 825 0
-794 825 0
-813 816 815 -826 0
813 826 0
-816 826 0
-815 826 0
-814 817 -827 0
814 827 0
-817 827 0
-815 818 -828 0
815 828 0
-818 828 0
-815 818 817 -829 0
815 829 0
-818 829 0
-817 829 0
-816 819 -830 0
816 830 0
-819 830 0
-816 819 818 -831 0
816 831 0
-819 831 0
-818 831 0
-817 798 -832 0
817 832 0
-798 832 0
-818 -833 0
818 833 0
-819 -834 0
819 834 0
-820 -821 -822 -823 -824 -825 -826 -827 -828 -829 -830 -831 -832 -833 -834 835 0
-835 820 0
-835 821 0
-835 822 0
-835 823 0
-835 824 0
-835 825 0
-835 826 0
-835 827 0
-835 828 0
-835 829 0
-835 830 0
-835 831 0
-835 832 0
-835 833 0
-835 834 0
810 835 0
-839 -837 -844 0
839 844 0
837 844 0
-839 -838 -845 0
839 845 0
838 845 0
837 838 839 -846 0
-837 846 0
-838 846 0
-839 846 0
-841 839 -847 0
841 847 0
-839 847 0
-839 841 -849 0
839 849 0
-841 849 0
-843 841 -850 0
843 850 0
-841 850 0
-843 -842 -851 0
843 851 0
842 851 0
-841 842 843 -852 0
841 852 0
-842 852 0
-843 852 0
843 -853 0
-843 853 0
-844 -845 -846 -847 -849 -850 -851 -852 -853 854 0
-854 844 0
-854 845 0
-854 846 0
-854 847 0
-854 849 0
-854 850 0
-854 851 0
-854 852 0
-854 853 0
837 857 -864 0
-837 864 0
-857 864 0
857 856 -865 0
-857 865 0
-856 865 0
-855 858 838 -866 0
855 866 0
-858 866 0
-838 866 0
-856 859 838 -867 0
856 867 0
-859 867 0
-838 867 0
-856 859 858 -868 0
856 868 0
-859 868 0
-858 868 0
-857 860 838 -869 0
857 869 0
-860 869 0
-838 869 0
-857 860 859 -870 0
857 870 0
-860 870 0
-859 870 0
-858 861 -871 0
858 871 0
-861 871 0
-859 862 -872 0
859 872 0
-862 872 0
-859 862 861 -873 0
859 873 0
-862 873 0
-861 873 0
-860 863 -874 0
860 874 0
-863 874 0
-860 863 862 -875 0
860 875 0
-863 875 0
-862 875 0
-861 842 -876 0
861 876 0
-842 876 0
-862 -877 0
862 877 0
-863 -878 0
863 878 0
-864 -865 -866 -867 -868 -869 -870 -871 -872 -873 -874 -875 -876 -877 -878 879 0
-879 864 0
-879 865 0
-879 866 0
-879 867 0
-879 868 0
-879 869 0
-879 870 0
-879 871 0
-879 872 0
-879 873 0
-879 874 0
-879 875 0
-879 876 0
-879 877 0
-879 878 0
854 879 0
-883 -881 -888 0
883 888 0
881 888 0
881 883 -890 0
-881 890 0
-883 890 0
-885 883 -891 0
885 891 0
-883 891 0
-883 885 -893 0
883 893 0
-885 893 0
-887 885 -894 0
887 894 0
-885 894 0
-885 887 -896 0
885 896 0
-887 896 0
887 -897 0
-887 897 0
-888 -890 -891 -893 -894 -896 -897 898 0
-898 888 0
-898 890 0
-898 891 0
-898 893 0
-898 894 0
-898 896 0
-898 897 0
881 901 -908 0
-881 908 0
-901 908 0
901 900 -909 0
-901 909 0
-900 909 0
-899 902 -910 0
899 910 0
-902 910 0
-900 903 -911 0
900 911 0
-903 911 0
-900 903 902 -912 0
900 912 0
-903 912 0
-902 912 0
-901 904 -913 0
901 913 0
-904 913 0
-901 904 903 -914 0
901 914 0
-904 914 0
-903 914 0
-902 905 -915 0
902 915 0
-905 915 0
-903 906 -916 0
903 916 0
-906 916 0
-903 906 905 -917 0
903 917 0
-906 917 0
-905 917 0
-904 907 -918 0
904 918 0
-907 918 0
-904 907 906 -919 0
904 919 0
-907 919 0
-906 919 0
-905 -920 0
905 920 0
-906 -921 0
906 921 0
-907 -922 0
907 922 0
-908 -909 -910 -911 -912 -913 -914 -915 -916 -917 -918 -919 -920 -921 -922 923 0
-923 908 0
-923 909 0
-923 910 0
-923 911 0
-923 912 0
-923 913 0
-923 914 0
-923 915 0
-923 916 0
-923 917 0
-923 918 0
-923 919 0
-923 920 0
-923 921 0
-923 922 0
898 923 0
-927 -925 -932 0
927 932 0
925 932 0
925 927 -934 0
-925 934 0
-927 934 0
-929 927 -935 0
929 935 0
-927 935 0
-927 929 -937 0
927 937 0
-929 937 0
-931 929 -938 0
931 938 0
-929 938 0
-929 931 -940 0
929 940 0
-931 940 0
931 -941 0
-931 941 0
-932 -934 -935 -937 -938 -940 -941 942 0
-942 932 0
-942 934 0
-942 935 0
-942 937 0
-942 938 0
-942 940 0
-942 941 0
925 945 -952 0
-925 952 0
-945 952 0
945 944 -953 0
-945 953 0
-944 953 0
-943 946 -954 0
943 954 0
-946 954 0
-944 947 -955 0
944 955 0
-947 955 0
-944 947 946 -956 0
944 956 0
-947 956 0
-946 956 0
-945 948 -957 0
945 957 0
-948 957 0
-945 948 947 -958 0
945 958 0
-948 958 0
-947 958 0
-946 949 -959 0
946 959 0
-949 959 0
-947 950 -960 0
947 960 0
-950 960 0
-947 950 949 -961 0
947 961 0
-950 961 0
-949 961 0
-948 951 -962 0
948 962 0
-951 962 0
-948 951 950 -963 0
948 963 0
-951 963 0
-950 963 0
-949 -964 0
949 964 0
-950 -965 0
950 965 0
-951 -966 0
951 966 0
-952 -953 -954 -955 -956 -957 -958 -959 -960 -961 -962 -963 -964 -965 -966 967 0
-967 952 0
-967 953 0
-967 954 0
-967 955 0
-967 956 0
-967 957 0
-967 958 0
-967 959 0
-967 960 0
-967 961 0
-967 962 0
-967 963 0
-967 964 0
-967 965 0
-967 966 0
942 967 0
971 -978 0
-971 978 0
-973 971 -979 0
973 979 0
-971 979 0
-971 973 -981 0
971 981 0
-973 981 0
-975 973 -982 0
975 982 0
-973 982 0
-973 975 -984 0
973 984 0
-975 984 0
975 -985 0
-975 985 0
-978 -979 -981 -982 -984 -985 986 0
-986 978 0
-986 979 0
-986 981 0
-986 982 0
-986 984 0
-986 985 0
989 -996 0
-989 996 0
989 988 -997 0
-989 997 0
-988 997 0
-987 990 -998 0
987 998 0
-990 998 0
-988 991 -999 0
988 999 0
-991 999 0
-988 991 990 -1000 0
988 1000 0
-991 1000 0
-990 1000 0
-989 992 -1001 0
989 1001 0
-992 1001 0
-989 992 991 -1002 0
989 1002 0
-992 1002 0
-991 1002 0
-990 993 -1003 0
990 1003 0
-993 1003 0
-991 994 -1004 0
991 1004 0
-994 1004 0
-991 994 993 -1005 0
991 1005 0
-994 1005 0
-993 1005 0
-992 995 -1006 0
992 1006 0
-995 1006 0
-992 995 994 -1007 0
992 1007 0
-995 1007 0
-994 1007 0
-993 -1008 0
993 1008 0
-994 -1009 0
994 1009 0
-995 -1010 0
995 1010 0
-996 -997 -998 -999 -1000 -1001 -1002 -1003 -1004 -1005 -1006 -1007 -1008 -1009 -1010 1011 0
-1011 996 0
-1011 997 0
-1011 998 0
-1011 999 0
-1011 1000 0
-1011 1001 0
-1011 1002 0
-1011 1003 0
-1011 1004 0
-1011 1005 0
-1011 1006 0
-1011 1007 0
-1011 1008 0
-1011 1009 0
-1011 1010 0
986 1011 0
1015 -1022 0
-1015 1022 0
-1017 1015 -1023 0
1017 1023 0
-1015 1023 0
-1015 1017 -1025 0
1015 1025 0
-1017 1025 0
-1019 1017 -1026 0
1019 1026 0
-1017 1026 0
-1017 1019 -1028 0
1017 1028 0
-1019 1028 0
1019 -1029 0
-1019 1029 0
-1022 -1023 -1025 -1026 -1028 -1029 1030 0
-1030 1022 0
-1030 1023 0
-1030 1025 0
-1030 1026 0
-1030 1028 0
-1030 1029 0
1033 -1040 0
-1033 1040 0
1033 1032 -1041 0
-1033 1041 0
-1032 1041 0
-1031 1034 -1042 0
1031 1042 0
-1034 1042 0
-1032 1035 -1043 0
1032 1043 0
-1035 1043 0
-1032 1035 1034 -1044 0
1032 1044 0
-1035 1044 0
-1034 1044 0
-1033 1036 -1045 0
1033 1045 0
-1036 1045 0
-1033 1036 1035 -1046 0
1033 1046 0
-1036 1046 0
-1035 1046 0
-1034 1037 -1047 0
1034 1047 0
-1037 1047 0
-1035 1038 -1048 0
1035 1048 0
-1038 1048 0
-1035 1038 1037 -1049 0
1035 1049 0
-1038 1049 0
-1037 1049 0
-1036 1039 -1050 0
1036 1050 0
-1039 1050 0
-1036 1039 1038 -1051 0
1036 1051 0
-1039 1051 0
-1038 1051 0
-1037 -1052 0
1037 1052 0
-1038 -1053 0
1038 1053 0
-1039 -1054 0
1039 1054 0
-1040 -1041 -1042 -1043 -1044 -1045 -1046 -1047 -1048 -1049 -1050 -1051 -1052 -1053 -1054 1055 0
-1055 1040 0
-1055 1041 0
-1055 1042 0
-1055 1043 0
-1055 1044 0
-1055 1045 0
-1055 1046 0
-1055 1047 0
-1055 1048 0
-1055 1049 0
-1055 1050 0
-1055 1051 0
-1055 1052 0
-1055 1053 0
-1055 1054 0
1030 1055 0
1059 -1066 0
-1059 1066 0
-1061 1059 -1067 0
1061 1067 0
-1059 1067 0
-1059 1061 -1069 0
1059 1069 0
-1061 1069 0
-1063 1061 -1070 0
1063 1070 0
-1061 1070 0
-1061 1063 -1072 0
1061 1072 0
-1063 1072 0
1063 -1073 0
-1063 1073 0
-1066 -1067 -1069 -1070 -1072 -1073 1074 0
-1074 1066 0
-1074 1067 0
-1074 1069 0
-1074 1070 0
-1074 1072 0
-1074 1073 0
1077 -1084 0
-1077 1084 0
1077 1076 -1085 0
-1077 1085 0
-1076 1085 0
-1075 1078 -1086 0
1075 1086 0
-1078 1086 0
-1076 1079 -1087 0
1076 1087 0
-1079 1087 0
-1076 1079 1078 -1088 0
1076 1088 0
-1079 1088 0
-1078 1088 0
-1077 1080 -1089 0
1077 1089 0
-1080 1089 0
-1077 1080 1079 -1090 0
1077 1090 0
-1080 1090 0
-1079 1090 0
-1078 1081 -1091 0
1078 1091 0
-1081 1091 0
-1079 1082 -1092 0
1079 1092 0
-1082 1092 0
-1079 1082 1081 -1093 0
1079 1093 0
-1082 1093 0
-1081 1093 0
-1080 1083 -1094 0
1080 1094 0
-1083 1094 0
-1080 1083 1082 -1095 0
1080 1095 0
-1083 1095 0
-1082 1095 0
-1081 -1096 0
1081 1096 0
-1082 -1097 0
1082 1097 0
-1083 -1098 0
1083 1098 0
-1084 -1085 -1086 -1087 -1088 -1089 -1090 -1091 -1092 -1093 -1094 -1095 -1096 -1097 -1098 1099 0
-1099 1084 0
-1099 1085 0
-1099 1086 0
-1099 1087 0
-1099 1088 0
-1099 1089 0
-1099 1090 0
-1099 1091 0
-1099 1092 0
-1099 1093 0
-1099 1094 0
-1099 1095 0
-1099 1096 0
-1099 1097 0
-1099 1098 0
1074 1099 0
1103 -1110 0
-1103 1110 0
-1105 1103 -1111 0
1105 1111 0
-1103 1111 0
-1103 1105 -1113 0
1103 1113 0
-1105 1113 0
-1107 1105 -1114 0
1107 1114 0
-1105 1114 0
-1105 1107 -1116 0
1105 1116 0
-1107 1116 0
1107 -1117 0
-1107 1117 0
-1110 -1111 -1113 -1114 -1116 -1117 1118 0
-1118 1110 0
-1118 1111 0
-1118 1113 0
-1118 1114 0
-1118 1116 0
-1118 1117 0
1121 -1128 0
-1121 1128 0
1121 1120 -1129 0
-1121 1129 0
-1120 1129 0
-1119 1122 -1130 0
1119 1130 0
-1122 1130 0
-1120 1123 -1131 0
1120 1131 0
-1123 1131 0
-1120 1123 1122 -1132 0
1120 1132 0
-1123 1132 0
-1122 1132 0
-1121 1124 -1133 0
1121 1133 0
-1124 1133 0
-1121 1124 1123 -1134 0
1121 1134 0
-1124 1134 0
-1123 1134 0
-1122 1125 -1135 0
1122 1135 0
-1125 1135 0
-1123 1126 -1136 0
1123 1136 0
-1126 1136 0
-1123 1126 1125 -1137 0
1123 1137 0
-1126 1137 0
-1125 1137 0
-1124 1127 -1138 0
1124 1138 0
-1127 1138 0
-1124 1127 1126 -1139 0
1124 1139 0
-1127 1139 0
-1126 1139 0
-1125 -1140 0
1125 1140 0
-1126 -1141 0
1126 1141 0
-1127 -1142 0
1127 1142 0
-1128 -1129 -1130 -1131 -1132 -1133 -1134 -1135 -1136 -1137 -1138 -1139 -1140 -1141 -1142 1143 0
-1143 1128 0
-1143 1129 0
-1143 1130 0
-1143 1131 0
-1143 1132 0
-1143 1133 0
-1143 1134 0
-1143 1135 0
-1143 1136 0
-1143 1137 0
-1143 1138 0
-1143 1139 0
-1143 1140 0
-1143 1141 0
-1143 1142 0
1118 1143 0
1147 -1154 0
-1147 1154 0
-1149 1147 -1155 0
1149 1155 0
-1147 1155 0
-1147 1149 -1157 0
1147 1157 0
-1149 1157 0
-1151 1149 -1158 0
1151 1158 0
-1149 1158 0
-1149 1151 -1160 0
1149 1160 0
-1151 1160 0
1151 -1161 0
-1151 1161 0
-1154 -1155 -1157 -1158 -1160 -1161 1162 0
-1162 1154 0
-1162 1155 0
-1162 1157 0
-1162 1158 0
-1162 1160 0
-1162 1161 0
1165 -1172 0
-1165 1172 0
1165 1164 -1173 0
-1165 1173 0
-1164 1173 0
-1163 1166 -1174 0
1163 1174 0
-1166 1174 0
-1164 1167 -1175 0
1164 1175 0
-1167 1175 0
-1164 1167 1166 -1176 0
1164 1176 0
-1167 1176 0
-1166 1176 0
-1165 1168 -1177 0
1165 1177 0
-1168 1177 0
-1165 1168 1167 -1178 0
1165 1178 0
-1168 1178 0
-1167 1178 0
-1166 1169 -1179 0
1166 1179 0
-1169 1179 0
-1167 1170 -1180 0
1167 1180 0
-1170 1180 0
-1167 1170 1169 -1181 0
1167 1181 0
-1170 1181 0
-1169 1181 0
-1168 1171 -1182 0
1168 1182 0
-1171 1182 0
-1168 1171 1170 -1183 0
1168 1183 0
-1171 1183 0
-1170 1183 0
-1169 -1184 0
1169 1184 0
-1170 -1185 0
1170 1185 0
-1171 -1186 0
1171 1186 0
-1172 -1173 -1174 -1175 -1176 -1177 -1178 -1179 -1180 -1181 -1182 -1183 -1184 -1185 -1186 1187 0
-1187 1172 0
-1187 1173 0
-1187 1174 0
-1187 1175 0
-1187 1176 0
-1187 1177 0
-1187 1178 0
-1187 1179 0
-1187 1180 0
-1187 1181 0
-1187 1182 0
-1187 1183 0
-1187 1184 0
-1187 1185 0
-1187 1186 0
1162 1187 0
1191 -1198 0
-1191 1198 0
-1193 1191 -1199 0
1193 1199 0
-1191 1199 0
-1191 1193 -1201 0
1191 1201 0
-1193 1201 0
-1195 1193 -1202 0
1195 1202 0
-1193 1202 0
-1193 1195 -1204 0
1193 1204 0
-1195 1204 0
1195 -1205 0
-1195 1205 0
-1198 -1199 -1201 -1202 -1204 -1205 1206 0
-1206 1198 0
-1206 1199 0
-1206 1201 0
-1206 1202 0
-1206 1204 0
-1206 1205 0
1209 -1216 0
-1209 1216 0
1209 1208 -1217 0
-1209 1217 0
-1208 1217 0
-1207 1210 -1218 0
1207 1218 0
-1210 1218 0
-1208 1211 -1219 0
1208 1219 0
-1211 1219 0
-1208 1211 1210 -1220 0
1208 1220 0
-1211 1220 0
-1210 1220 0
-1209 1212 -1221 0
1209 1221 0
-1212 1221 0
-1209 1212 1211 -1222 0
1209 1222 0
-1212 1222 0
-1211 1222 0
-1210 1213 -1223 0
1210 1223 0
-1213 1223 0
-1211 1214 -1224 0
1211 1224 0
-1214 1224 0
-1211 1214 1213 -1225 0
1211 1225 0
-1214 1225 0
-1213 1225 0
-1212 1215 -1226 0
1212 1226 0
-1215 1226 0
-1212 1215 1214 -1227 0
1212 1227 0
-1215 1227 0
-1214 1227 0
-1213 -1228 0
1213 1228 0
-1214 -1229 0
1214 1229 0
-1215 -1230 0
1215 1230 0
-1216 -1217 -1218 -1219 -1220 -1221 -1222 -1223 -1224 -1225 -1226 -1227 -1228 -1229 -1230 1231 0
-1231 1216 0
-1231 1217 0
-1231 1218 0
-1231 1219 0
-1231 1220 0
-1231 1221 0
-1231 1222 0
-1231 1223 0
-1231 1224 0
-1231 1225 0
-1231 1226 0
-1231 1227 0
-1231 1228 0
-1231 1229 0
-1231 1230 0
1206 1231 0
1235 -1242 0
-1235 1242 0
-1237 1235 -1243 0
1237 1243 0
-1235 1243 0
-1235 1237 -1245 0
1235 1245 0
-1237 1245 0
-1239 1237 -1246 0
1239 1246 0
-1237 1246 0
-1237 1239 -1248 0
1237 1248 0
-1239 1248 0
1239 -1249 0
-1239 1249 0
-1242 -1243 -1245 -1246 -1248 -1249 1250 0
-1250 1242 0
-1250 1243 0
-1250 1245 0
-1250 1246 0
-1250 1248 0
-1250 1249 0
1253 -1260 0
-1253 1260 0
1253 1252 -1261 0
-1253 1261 0
-1252 1261 0
-1251 1254 -1262 0
1251 1262 0
-1254 1262 0
-1252 1255 -1263 0
1252 1263 0
-1255 1263 0
-1252 1255 1254 -1264 0
1252 1264 0
-1255 1264 0
-1254 1264 0
-1253 1256 -1265 0
1253 1265 0
-1256 1265 0
-1253 1256 1255 -1266 0
1253 1266 0
-1256 1266 0
-1255 1266 0
-1254 1257 -1267 0
1254 1267 0
-1257 1267 0
-1255 1258 -1268 0
1255 1268 0
-1258 1268 0
-1255 1258 1257 -1269 0
1255 1269 0
-1258 1269 0
-1257 1269 0
-1256 1259 -1270 0
1256 1270 0
-1259 1270 0
-1256 1259 1258 -1271 0
1256 1271 0
-1259 1271 0
-1258 1271 0
-1257 -1272 0
1257 1272 0
-1258 -1273 0
1258 1273 0
-1259 -1274 0
1259 1274 0
-1260 -1261 -1262 -1263 -1264 -1265 -1266 -1267 -1268 -1269 -1270 -1271 -1272 -1273 -1274 1275 0
-1275 1260 0
-1275 1261 0
-1275 1262 0
-1275 1263 0
-1275 1264 0
-1275 1265 0
-1275 1266 0
-1275 1267 0
-1275 1268 0
-1275 1269 0
-1275 1270 0
-1275 1271 0
-1275 1272 0
-1275 1273 0
-1275 1274 0
1250 1275 0
1279 -1286 0
-1279 1286 0
-1281 1279 -1287 0
1281 1287 0
-1279 1287 0
-1279 1281 -1289 0
1279 1289 0
-1281 1289 0
-1283 1281 -1290 0
1283 1290 0
-1281 1290 0
-1281 1283 -1292 0
1281 1292 0
-1283 1292 0
1283 -1293 0
-1283 1293 0
-1286 -1287 -1289 -1290 -1292 -1293 1294 0
-1294 1286 0
-1294 1287 0
-1294 1289 0
-1294 1290 0
-1294 1292 0
-1294 1293 0
1297 -1304 0
-1297 1304 0
1297 1296 -1305 0
-1297 1305 0
-1296 1305 0
-1295 1298 -1306 0
1295 1306 0
-1298 1306 0
-1296 1299 -1307 0
1296 1307 0
-1299 1307 0
-1296 1299 1298 -1308 0
1296 1308 0
-1299 1308 0
-1298 1308 0
-1297 1300 -1309 0
1297 1309 0
-1300 1309 0
-1297 1300 1299 -1310 0
1297 1310 0
-1300 1310 0
-1299 1310 0
-1298 1301 -1311 0
1298 1311 0
-1301 1311 0
-1299 1302 -1312 0
1299 1312 0
-1302 1312 0
-1299 1302 1301 -1313 0
1299 1313 0
-1302 1313 0
-1301 1313 0
-1300 1303 -1314 0
1300 1314 0
-1303 1314 0
-1300 1303 1302 -1315 0
1300 1315 0
-1303 1315 0
-1302 1315 0
-1301 -1316 0
1301 1316 0
-1302 -1317 0
1302 1317 0
-1303 -1318 0
1303 1318 0
-1304 -1305 -1306 -1307 -1308 -1309 -1310 -1311 -1312 -1313 -1314 -1315 -1316 -1317 -1318 1319 0
-1319 1304 0
-1319 1305 0
-1319 1306 0
-1319 1307 0
-1319 1308 0
-1319 1309 0
-1319 1310 0
-1319 1311 0
-1319 1312 0
-1319 1313 0
-1319 1314 0
-1319 1315 0
-1319 1316 0
-1319 1317 0
-1319 1318 0
1294 1319 0
1323 -1330 0
-1323 1330 0
-1325 1323 -1331 0
1325 1331 0
-1323 1331 0
-1323 1325 -1333 0
1323 1333 0
-1325 1333 0
-1327 1325 -1334 0
1327 1334 0
-1325 1334 0
-1325 1327 -1336 0
1325 1336 0
-1327 1336 0
1327 -1337 0
-1327 1337 0
-1330 -1331 -1333 -1334 -1336 -1337 1338 0
-1338 1330 0
-1338 1331 0
-1338 1333 0
-1338 1334 0
-1338 1336 0
-1338 1337 0
1341 -1348 0
-1341 1348 0
1341 1340 -1349 0
-1341 1349 0
-1340 1349 0
-1339 1342 -1350 0
1339 1350 0
-1342 1350 0
-1340 1343 -1351 0
1340 1351 0
-1343 1351 0
-1340 1343 1342 -1352 0
1340 1352 0
-1343 1352 0
-1342 1352 0
-1341 1344 -1353 0
1341 1353 0
-1344 1353 0
-1341 1344 1343 -1354 0
1341 1354 0
-1344 1354 0
-1343 1354 0
-1342 1345 -1355 0
1342 1355 0
-1345 1355 0
-1343 1346 -1356 0
1343 1356 0
-1346 1356 0
-1343 1346 1345 -1357 0
1343 1357 0
-1346 1357 0
-1345 1357 0
-1344 1347 -1358 0
1344 1358 0
-1347 1358 0
-1344 1347 1346 -1359 0
1344 1359 0
-1347 1359 0
-1346 1359 0
-1345 -1360 0
1345 1360 0
-1346 -1361 0
1346 1361 0
-1347 -1362 0
1347 1362 0
-1348 -1349 -1350 -1351 -1352 -1353 -1354 -1355 -1356 -1357 -1358 -1359 -1360 -1361 -1362 1363 0
-1363 1348 0
-1363 1349 0
-1363 1350 0
-1363 1351 0
-1363 1352 0
-1363 1353 0
-1363 1354 0
-1363 1355 0
-1363 1356 0
-1363 1357 0
-1363 1358 0
-1363 1359 0
-1363 1360 0
-1363 1361 0
-1363 1362 0
1338 1363 0
1367 -1374 0
-1367 1374 0
-1369 1367 -1375 0
1369 1375 0
-1367 1375 0
-1367 1369 -1377 0
1367 1377 0
-1369 1377 0
-1371 1369 -1378 0
1371 1378 0
-1369 1378 0
-1369 1371 -1380 0
1369 1380 0
-1371 1380 0
1371 -1381 0
-1371 1381 0
-1374 -1375 -1377 -1378 -1380 -1381 1382 0
-1382 1374 0
-1382 1375 0
-1382 1377 0
-1382 1378 0
-1382 1380 0
-1382 1381 0
1385 -1392 0
-1385 1392 0
1385 1384 -1393 0
-1385 1393 0
-1384 1393 0
-1383 1386 -1394 0
1383 1394 0
-1386 1394 0
-1384 1387 -1395 0
1384 1395 0
-1387 1395 0
-1384 1387 1386 -1396 0
1384 1396 0
-1387 1396 0
-1386 1396 0
-1385 1388 -1397 0
1385 1397 0
-1388 1397 0
-1385 1388 1387 -1398 0
1385 1398 0
-1388 1398 0
-1387 1398 0
-1386 1389 -1399 0
1386 1399 0
-1389 1399 0
-1387 1390 -1400 0
1387 1400 0
-1390 1400 0
-1387 1390 1389 -1401 0
1387 1401 0
-1390 1401 0
-1389 1401 0
-1388 1391 -1402 0
1388 1402 0
-1391 1402 0
-1388 1391 1390 -1403 0
1388 1403 0
-1391 1403 0
-1390 1403 0
-1389 -1404 0
1389 1404 0
-1390 -1405 0
1390 1405 0
-1391 -1406 0
1391 1406 0
-1392 -1393 -1394 -1395 -1396 -1397 -1398 -1399 -1400 -1401 -1402 -1403 -1404 -1405 -1406 1407 0
-1407 1392 0
-1407 1393 0
-1407 1394 0
-1407 1395 0
-1407 1396 0
-1407 1397 0
-1407 1398 0
-1407 1399 0
-1407 1400 0
-1407 1401 0
-1407 1402 0
-1407 1403 0
-1407 1404 0
-1407 1405 0
-1407 1406 0
1382 1407 0
1411 -1418 0
-1411 1418 0
-1413 1411 -1419 0
1413 1419 0
-1411 1419 0
-1411 1413 -1421 0
1411 1421 0
-1413 1421 0
-1415 1413 -1422 0
1415 1422 0
-1413 1422 0
-1413 1415 -1424 0
1413 1424 0
-1415 1424 0
1415 -1425 0
-1415 1425 0
-1418 -1419 -1421 -1422 -1424 -1425 1426 0
-1426 1418 0
-1426 1419 0
-1426 1421 0
-1426 1422 0
-1426 1424 0
-1426 1425 0
1429 -1436 0
-1429 1436 0
1429 1428 -1437 0
-1429 1437 0
-1428 1437 0
-1427 1430 -1438 0
1427 1438 0
-1430 1438 0
-1428 1431 -1439 0
1428 1439 0
-1431 1439 0
-1428 1431 1430 -1440 0
1428 1440 0
-1431 1440 0
-1430 1440 0
-1429 1432 -1441 0
1429 1441 0
-1432 1441 0
-1429 1432 1431 -1442 0
1429 1442 0
-1432 1442 0
-1431 1442 0
-1430 1433 -1443 0
1430 1443 0
-1433 1443 0
-1431 1434 -1444 0
1431 1444 0
-1434 1444 0
-1431 1434 1433 -1445 0
1431 1445 0
-1434 1445 0
-1433 1445 0
-1432 1435 -1446 0
1432 1446 0
-1435 1446 0
-1432 1435 1434 -1447 0
1432 1447 0
-1435 1447 0
-1434 1447 0
-1433 -1448 0
1433 1448 0
-1434 -1449 0
1434 1449 0
-1435 -1450 0
1435 1450 0
-1436 -1437 -1438 -1439 -1440 -1441 -1442 -1443 -1444 -1445 -1446 -1447 -1448 -1449 -1450 1451 0
-1451 1436 0
-1451 1437 0
-1451 1438 0
-1451 1439 0
-1451 1440 0
-1451 1441 0
-1451 1442 0
-1451 1443 0
-1451 1444 0
-1451 1445 0
-1451 1446 0
-1451 1447 0
-1451 1448 0
-1451 1449 0
-1451 1450 0
1426 1451 0
1455 -1462 0
-1455 1462 0
-1457 1455 -1463 0
1457 1463 0
-1455 1463 0
-1455 1457 -1465 0
1455 1465 0
-1457 1465 0
-1459 1457 -1466 0
1459 1466 0
-1457 1466 0
-1457 1459 -1468 0
1457 1468 0
-1459 1468 0
1459 -1469 0
-1459 1469 0
-1462 -1463 -1465 -1466 -1468 -1469 1470 0
-1470 1462 0
-1470 1463 0
-1470 1465 0
-1470 1466 0
-1470 1468 0
-1470 1469 0
1473 -1480 0
-1473 1480 0
1473 1472 -1481 0
-1473 1481 0
-1472 1481 0
-1471 1474 -1482 0
1471 1482 0
-1474 1482 0
-1472 1475 -1483 0
1472 1483 0
-1475 1483 0
-1472 1475 1474 -1484 0
1472 1484 0
-1475 1484 0
-1474 1484 0
-1473 1476 -1485 0
1473 1485 0
-1476 1485 0
-1473 1476 1475 -1486 0
1473 1486 0
-1476 1486 0
-1475 1486 0
-1474 1477 -1487 0
1474 1487 0
-1477 1487 0
-1475 1478 -1488 0
1475 1488 0
-1478 1488 0
-1475 1478 1477 -1489 0
1475 1489 0
-1478 1489 0
-1477 1489 0
-1476 1479 -1490 0
1476 1490 0
-1479 1490 0
-1476 1479 1478 -1491 0
1476 1491 0
-1479 1491 0
-1478 1491 0
-1477 -1492 0
1477 1492 0
-1478 -1493 0
1478 1493 0
-1479 -1494 0
1479 1494 0
-1480 -1481 -1482 -1483 -1484 -1485 -1486 -1487 -1488 -1489 -1490 -1491 -1492 -1493 -1494 1495 0
-1495 1480 0
-1495 1481 0
-1495 1482 0
-1495 1483 0
-1495 1484 0
-1495 1485 0
-1495 1486 0
-1495 1487 0
-1495 1488 0
-1495 1489 0
-1495 1490 0
-1495 1491 0
-1495 1492 0
-1495 1493 0
-1495 1494 0
1470 1495 0
1499 -1506 0
-1499 1506 0
-1501 1499 -1507 0
1501 1507 0
-1499 1507 0
-1499 1501 -1509 0
1499 1509 0
-1501 1509 0
-1503 1501 -1510 0
1503 1510 0
-1501 1510 0
-1501 1503 -1512 0
1501 1512 0
-1503 1512 0
1503 -1513 0
-1503 1513 0
-1506 -1507 -1509 -1510 -1512 -1513 1514 0
-1514 1506 0
-1514 1507 0
-1514 1509 0
-1514 1510 0
-1514 1512 0
-1514 1513 0
1517 -1524 0
-1517 1524 0
1517 1516 -1525 0
-1517 1525 0
-1516 1525 0
-1515 1518 -1526 0
1515 1526 0
-1518 1526 0
-1516 1519 -1527 0
1516 1527 0
-1519 1527 0
-1516 1519 1518 -1528 0
1516 1528 0
-1519 1528 0
-1518 1528 0
-1517 1520 -1529 0
1517 1529 0
-1520 1529 0
-1517 1520 1519 -1530 0
1517 1530 0
-1520 1530 0
-1519 1530 0
-1518 1521 -1531 0
1518 1531 0
-1521 1531 0
-1519 1522 -1532 0
1519 1532 0
-1522 1532 0
-1519 1522 1521 -1533 0
1519 1533 0
-1522 1533 0
-1521 1533 0
-1520 1523 -1534 0
1520 1534 0
-1523 1534 0
-1520 1523 1522 -1535 0
1520 1535 0
-1523 1535 0
-1522 1535 0
-1521 -1536 0
1521 1536 0
-1522 -1537 0
1522 1537 0
-1523 -1538 0
1523 1538 0
-1524 -1525 -1526 -1527 -1528 -1529 -1530 -1531 -1532 -1533 -1534 -1535 -1536 -1537 -1538 1539 0
-1539 1524 0
-1539 1525 0
-1539 1526 0
-1539 1527 0
-1539 1528 0
-1539 1529 0
-1539 1530 0
-1539 1531 0
-1539 1532 0
-1539 1533 0
-1539 1534 0
-1539 1535 0
-1539 1536 0
-1539 1537 0
-1539 1538 0
1514 1539 0
1543 -1550 0
-1543 1550 0
-1545 1543 -1551 0
1545 1551 0
-1543 1551 0
-1543 1545 -1553 0
1543 1553 0
-1545 1553 0
-1547 1545 -1554 0
1547 1554 0
-1545 1554 0
-1545 1547 -1556 0
1545 1556 0
-1547 1556 0
1547 -1557 0
-1547 1557 0
-1550 -1551 -1553 -1554 -1556 -1557 1558 0
-1558 1550 0
-1558 1551 0
-1558 1553 0
-1558 1554 0
-1558 1556 0
-1558 1557 0
1561 -1568 0
-1561 1568 0
1561 1560 -1569 0
-1561 1569 0
-1560 1569 0
-1559 1562 -1570 0
1559 1570 0
-1562 1570 0
-1560 1563 -1571 0
1560 1571 0
-1563 1571 0
-1560 1563 1562 -1572 0
1560 1572 0
-1563 1572 0
-1562 1572 0
-1561 1564 -1573 0
1561 1573 0
-1564 1573 0
-1561 1564 1563 -1574 0
1561 1574 0
-1564 1574 0
-1563 1574 0
-1562 1565 -1575 0
1562 1575 0
-1565 1575 0
-1563 1566 -1576 0
1563 1576 0
-1566 1576 0
-1563 1566 1565 -1577 0
1563 1577 0
-1566 1577 0
-1565 1577 0
-1564 1567 -1578 0
1564 1578 0
-1567 1578 0
-1564 1567 1566 -1579 0
1564 1579 0
-1567 1579 0
-1566 1579 0
-1565 -1580 0
1565 1580 0
-1566 -1581 0
1566 1581 0
-1567 -1582 0
1567 1582 0
-1568 -1569 -1570 -1571 -1572 -1573 -1574 -1575 -1576 -1577 -1578 -1579 -1580 -1581 -1582 1583 0
-1583 1568 0
-1583 1569 0
-1583 1570 0
-1583 1571 0
-1583 1572 0
-1583 1573 0
-1583 1574 0
-1583 1575 0
-1583 1576 0
-1583 1577 0
-1583 1578 0
-1583 1579 0
-1583 1580 0
-1583 1581 0
-1583 1582 0
1558 1583 0
1587 -1594 0
-1587 1594 0
-1589 1587 -1595 0
1589 1595 0
-1587 1595 0
-1587 1589 -1597 0
1587 1597 0
-1589 1597 0
-1591 1589 -1598 0
1591 1598 0
-1589 1598 0
-1589 1591 -1600 0
1589 1600 0
-1591 1600 0
1591 -1601 0
-1591 1601 0
-1594 -1595 -1597 -1598 -1600 -1601 1602 0
-1602 1594 0
-1602 1595 0
-1602 1597 0
-1602 1598 0
-1602 1600 0
-1602 1601 0
1605 -1612 0
-1605 1612 0
1605 1604 -1613 0
-1605 1613 0
-1604 1613 0
-1603 1606 -1614 0
1603 1614 0
-1606 1614 0
-1604 1607 -1615 0
1604 1615 0
-1607 1615 0
-1604 1607 1606 -1616 0
1604 1616 0
-1607 1616 0
-1606 1616 0
-1605 1608 -1617 0
1605 1617 0
-1608 1617 0
-1605 1608 1607 -1618 0
1605 1618 0
-1608 1618 0
-1607 1618 0
-1606 1609 -1619 0
1606 1619 0
-1609 1619 0
-1607 1610 -1620 0
1607 1620 0
-1610 1620 0
-1607 1610 1609 -1621 0
1607 1621 0
-1610 1621 0
-1609 1621 0
-1608 1611 -1622 0
1608 1622 0
-1611 1622 0
-1608 1611 1610 -1623 0
1608 1623 0
-1611 1623 0
-1610 1623 0
-1609 -1624 0
1609 1624 0
-1610 -1625 0
1610 1625 0
-1611 -1626 0
1611 1626 0
-1612 -1613 -1614 -1615 -1616 -1617 -1618 -1619 -1620 -1621 -1622 -1623 -1624 -1625 -1626 1627 0
-1627 1612 0
-1627 1613 0
-1627 1614 0
-1627 1615 0
-1627 1616 0
-1627 1617 0
-1627 1618 0
-1627 1619 0
-1627 1620 0
-1627 1621 0
-1627 1622 0
-1627 1623 0
-1627 1624 0
-1627 1625 0
-1627 1626 0
1602 1627 0
1631 -1638 0
-1631 1638 0
-1633 1631 -1639 0
1633 1639 0
-1631 1639 0
-1631 1633 -1641 0
1631 1641 0
-1633 1641 0
-1635 1633 -1642 0
1635 1642 0
-1633 1642 0
-1633 1635 -1644 0
1633 1644 0
-1635 1644 0
1635 -1645 0
-1635 1645 0
-1638 -1639 -1641 -1642 -1644 -1645 1646 0
-1646 1638 0
-1646 1639 0
-1646 1641 0
-1646 1642 0
-1646 1644 0
-1646 1645 0
1649 -1656 0
-1649 1656 0
1649 1648 -1657 0
-1649 1657 0
-1648 1657 0
-1647 1650 -1658 0
1647 1658 0
-1650 1658 0
-1648 1651 -1659 0
1648 1659 0
-1651 1659 0
-1648 1651 1650 -1660 0
1648 1660 0
-1651 1660 0
-1650 1660 0
-1649 1652 -1661 0
1649 1661 0
-1652 1661 0
-1649 1652 1651 -1662 0
1649 1662 0
-1652 1662 0
-1651 1662 0
-1650 1653 -1663 0
1650 1663 0
-1653 1663 0
-1651 1654 -1664 0
1651 1664 0
-1654 1664 0
-1651 1654 1653 -1665 0
1651 1665 0
-1654 1665 0
-1653 1665 0
-1652 1655 -1666 0
1652 1666 0
-1655 1666 0
-1652 1655 1654 -1667 0
1652 1667 0
-1655 1667 0
-1654 1667 0
-1653 -1668 0
1653 1668 0
-1654 -1669 0
1654 1669 0
-1655 -1670 0
1655 1670 0
-1656 -1657 -1658 -1659 -1660 -1661 -1662 -1663 -1664 -1665 -1666 -1667 -1668 -1669 -1670 1671 0
-1671 1656 0
-1671 1657 0
-1671 1658 0
-1671 1659 0
-1671 1660 0
-1671 1661 0
-1671 1662 0
-1671 1663 0
-1671 1664 0
-1671 1665 0
-1671 1666 0
-1671 1667 0
-1671 1668 0
-1671 1669 0
-1671 1670 0
1646 1671 0
6 1674 0
1674 1673 0
-1673 1675 72 0
-1674 1676 72 0
-1674 1676 1675 0
-1675 1677 793 0
-1676 793 0
-1676 1677 0
-1677 837 0
-6 1679 0
-72 1681 0
-1679 1681 0
-72 -1679 1682 0
-793 1683 0
-1681 1683 0
-793 -1681 1684 0
-1682 1684 0
-793 -1682 0
-837 -1684 0
12 78 881 925 0
-12 1685 0
-78 1686 0
-1685 1686 0
-78 -1685 0
-881 1687 0
-1686 1687 0
-881 -1686 0
-925 -1687 0
138 204 794 838 0
-138 1688 0
-204 1689 0
-1688 1689 0
-204 -1688 0
-794 1690 0
-1689 1690 0
-794 -1689 0
-838 -1690 0
402 468 798 842 0
-402 1691 0
-468 1692 0
-1691 1692 0
-468 -1691 0
-798 1693 0
-1692 1693 0
-798 -1692 0
-842 -1693 0
3 69 705 749 0
-3 1694 0
-69 1695 0
-1694 1695 0
-69 -1694 0
-705 1696 0
-1695 1696 0
-705 -1695 0
-749 -1696 0
